107167
0,12,36,17,64,49,3,62,38,51,40,77,68,24,22,11,2,54,41,14,60,5,78,82,7,52,58,67,27,34,29,1,37,15,10,32,26,6,50,71,42,56,33,48,46,59,80,55,16,76,8,57,73,31,39,74,81,43,21,4,18,30,23,47,20,53,70,19,65,35,25,75,66,13,69,61,79,45,44,72,63,28,9,0